(set-logic ALL)
(declare-fun var0 () String)
(assert (str.in_re var0 (re.++ (re.union (re.+ (str.to_re "00")) (re.+ (str.to_re "11"))) (re.++ (re.+ (re.+ (str.to_re "2"))) (re.++ (re.+ (re.+ (str.to_re "3"))) (re.++ (re.* (re.* (str.to_re "444"))) (re.++ (re.+ (re.* (str.to_re "55"))) (re.++ (re.+ (re.+ (str.to_re "66"))) (re.++ (re.* (re.+ (str.to_re "777"))) (re.++ (re.+ (re.+ (str.to_re "8"))) (re.++ (re.* (re.union (str.to_re "99") (str.to_re "aaa"))) (re.* (re.union (str.to_re "bbb") (str.to_re "c"))))))))))))))
(assert (<= 126 (str.len var0)))
(check-sat)